/*********************************************
 * OPL 20.1.0.0 Data
 * Author: tvaucour
 * Creation Date: 3 mars 2023 at 08:37:45
 *********************************************/
 
nbEng = 4;
nbW = 3;

times = [[30,150,75,120],[45,135,60,120],[45,150,60,120]];
AvTimes = [9600,9600,9600];
profit=[35,75,40,65];
 